%mem=2gb
%NProcShared=20
#n B3LYP/6-31G(d) Opt Pop=ESP scf=(direct,tight)

 3MELF

0 1
N        517.09463      677.68471      751.22999
C        515.84825      677.72378      751.77028
N        515.37492      676.63947      752.56094
N        515.04285      678.79286      751.52469
C        515.48328      679.81266      750.73699
N        514.68744      680.96865      750.51287
N        516.72558      679.75155      750.19181
C        517.53613      678.69109      750.43793
N        518.84296      678.62318      749.88172
C        516.24959      675.56648      752.99767
H        514.38131      676.61371      752.83513
C        519.39343      679.65746      749.03028
H        519.42963      677.80253      750.09613
O        519.72210      679.10010      747.78928
H        520.31013      680.05722      749.51801
H        518.67377      680.49073      748.87931
H        520.18115      679.81591      747.27756
C        515.08486      671.98205      755.01572
N        514.88819      671.99415      756.42107
C        514.56727      670.78417      757.14678
O        514.42295      671.07576      758.50881
H        514.19918      670.21614      758.95159
H        515.39180      670.04947      757.00825
H        513.61367      670.36742      756.75179
H        514.97466      672.88631      756.93163
N        514.97740      670.82217      754.31447
C        515.16481      670.81454      752.97054
N        515.08375      669.59213      752.25395
H        514.86251      668.72466      752.76647
C        515.33537      669.53518      750.83018
H        516.36843      669.90179      750.63347
O        515.21397      668.21358      750.38292
H        515.46445      668.22385      749.42257
H        514.59544      670.17672      750.30263
N        515.45303      671.97502      752.32562
C        515.56715      673.13717      753.01816
N        515.90318      674.33118      752.32538
N        515.38768      673.13599      754.36595
O        506.71949      677.35315      749.92944
H        506.80261      676.47809      750.39005
H        506.98283      679.67062      749.14734
H        508.74616      677.44442      749.57261
C        507.94690      678.00429      750.10606
N        507.86618      679.34474      749.56917
H        507.97317      685.02831      746.50206
O        508.80996      684.63226      746.85995
H        507.72283      683.44617      748.13774
C        508.96555      680.23928      749.63910
N        508.82789      681.50882      749.17844
H        508.18277      678.06772      751.19261
C        508.51954      684.22059      748.16586
N        510.14769      679.84416      750.18504
C        509.85913      682.38866      749.26954
N        509.73025      683.71928      748.78388
H        508.15762      685.08788      748.76122
C        511.18143      680.71932      750.28680
N        511.02869      681.99172      749.83170
H        510.53547      684.35776      748.87060
N        512.40732      680.30092      750.87849
H        512.52221      679.30843      751.12996
C        513.45693      681.24268      751.22701
H        515.98472      674.29839      751.29780
H        516.18986      675.48143      754.10299
H        517.30940      675.78720      752.75316
H        513.64217      681.20444      752.32164
H        513.14783      682.28243      750.98944
H        515.06326      681.70487      749.89577

