%NProcShared=20
%Chk=epon-828_deg1_A1.chk
#n B3LYP/6-31G(d) Opt Pop=ESP scf=(direct,tight)

 EPON-828_DEG1_A1

0 1
O         12.20081       29.55732       14.64361
C         14.23881       28.58580       13.89898
C         13.48141       29.18652       15.08027
C         14.21128       30.41422       15.63863
O         15.48732       30.06503       16.05444
C         16.01116       30.09830       17.31197
C         17.38870       29.87698       17.44964
C         18.01119       29.89212       18.71985
C         17.20916       30.13630       19.85281
C         15.83793       30.35033       19.72346
C         15.23494       30.33150       18.46654
C         19.52493       29.66244       18.90671
C         19.70976       28.36832       19.74174
C         20.28498       29.42929       17.57476
C         20.12130       30.91748       19.57569
C         19.99658       32.16473       18.92834
C         20.51891       33.32333       19.50264
C         21.17463       33.26618       20.73097
C         21.31314       32.03620       21.40257
C         20.78675       30.87374       20.82381
O         21.94406       31.93262       22.60289
C         22.51567       32.98016       23.29746
C         23.09356       32.45008       24.60602
O         24.03564       33.32754       25.15585
C         24.53650       32.11567       24.61978
H         15.25405       28.25443       14.20440
H         13.68680       27.70991       13.49671
H         13.40223       28.40314       15.87035
H         13.60023       30.86129       16.44278
H         14.29960       31.18812       14.84618
H         17.95929       29.69706       16.55089
H         17.64963       30.16257       20.84129
H         15.23726       30.53186       20.60557
H         14.17062       30.49292       18.41947
H         19.25564       27.50114       19.21446
H         19.22492       28.44218       20.73750
H         20.78727       28.14173       19.89491
H         20.19168       30.29383       16.88484
H         19.90726       28.52365       17.05227
H         21.36872       29.27666       17.77094
H         19.48767       32.23945       17.97586
H         20.41334       34.27194       18.99205
H         21.56914       34.18084       21.15181
H         20.90719       29.94542       21.36180
H         21.74027       33.73813       23.54153
H         23.30656       33.45711       22.67576
H         22.44893       31.99702       25.38821
H         24.92106       31.50789       25.46478
H         25.16875       32.37242       23.74384
H         11.62578       29.61159       15.45139

