%NProcShared=20
%Chk=hdde_deg2.chk
#n B3LYP/6-31G(d) Opt Pop=ESP scf=(direct,tight)

 HDDE_DEG2

0 1
C         26.87390       21.59315       24.51989
O         28.85785       22.88180       24.07268
C         27.50229       22.98585       24.42629
C         26.75549       23.89779       23.43607
O         25.38921       24.01778       23.78883
C         25.16815       25.18781       24.54993
C         23.72701       25.20193       25.06375
C         22.70875       25.21440       23.91461
C         21.27197       25.23804       24.45846
C         20.20072       25.18514       23.35652
C         20.20776       26.41281       22.43598
O         19.19179       26.28865       21.45800
C         18.04264       27.02084       21.83202
C         16.91559       26.73140       20.83105
O         17.30713       27.06394       19.52302
C         15.62614       27.46626       21.20110
H         26.90209       21.07739       23.53633
H         25.82330       21.65411       24.87503
H         27.45462       23.44424       25.43636
H         26.80565       23.45914       22.41654
H         27.27449       24.88336       23.36071
H         25.33384       26.09594       23.92681
H         25.83572       25.21291       25.44095
H         23.58374       26.11123       25.68796
H         23.56256       24.30623       25.70242
H         22.84388       24.30478       23.28956
H         22.89477       26.11267       23.28980
H         21.11729       26.14679       25.08072
H         21.12882       24.34594       25.10714
H         19.20918       25.12741       23.85470
H         20.33441       24.26336       22.74934
H         21.17317       26.48081       21.89572
H         20.12745       27.34921       23.03906
H         18.26255       28.11293       21.82010
H         17.69069       26.71409       22.84387
H         16.69901       25.64164       20.85594
H         15.77670       28.56691       21.18473
H         15.27440       27.15789       22.20867
H         17.50209       28.03777       19.50386
H         28.90496       22.46623       23.17164

